
Gurobi 9.1.2 (win64) logging started Mon Dec  6 14:08:07 2021

Gurobi Optimizer version 9.1.2 build v9.1.2rc0 (win64)
Thread count: 8 physical cores, 8 logical processors, using up to 8 threads
Optimize a model with 1 rows, 69 columns and 68 nonzeros
Model fingerprint: 0x8f1881b0
Variable types: 1 continuous, 68 integer (68 binary)
Coefficient statistics:
  Matrix range     [1e+00, 1e+01]
  Objective range  [1e+00, 1e+00]
  Bounds range     [2e+01, 2e+01]
  RHS range        [1e+01, 1e+01]
Found heuristic solution: objective -23.8284449

Explored 0 nodes (0 simplex iterations) in 14.06 seconds
Thread count was 1 (of 8 available processors)

Solution count 1: -23.8284 
No other solutions better than -23.8284

Optimal solution found (tolerance 1.00e-04)
Best objective -2.382844489964e+01, best bound -2.382844489964e+01, gap 0.0000%

User-callback calls 25, time in user-callback 17.73 sec

Gurobi 9.1.2 (win64) logging started Mon Dec  6 14:11:26 2021

Gurobi Optimizer version 9.1.2 build v9.1.2rc0 (win64)
Thread count: 8 physical cores, 8 logical processors, using up to 8 threads
Optimize a model with 1 rows, 69 columns and 68 nonzeros
Model fingerprint: 0x8f1881b0
Variable types: 1 continuous, 68 integer (68 binary)
Coefficient statistics:
  Matrix range     [1e+00, 1e+01]
  Objective range  [1e+00, 1e+00]
  Bounds range     [2e+01, 2e+01]
  RHS range        [1e+01, 1e+01]
Found heuristic solution: objective -23.8284449

Explored 0 nodes (0 simplex iterations) in 13.98 seconds
Thread count was 1 (of 8 available processors)

Solution count 1: -23.8284 
No other solutions better than -23.8284

Optimal solution found (tolerance 1.00e-04)
Best objective -2.382844489964e+01, best bound -2.382844489964e+01, gap 0.0000%

User-callback calls 25, time in user-callback 17.55 sec
